c nombre: 2
c densidad: 0.1
p edges 50 122
e 1 6
e 1 19
e 1 32
e 1 47
e 1 50
e 2 4
e 2 13
e 2 24
e 2 25
e 2 39
e 3 6
e 3 10
e 3 31
e 3 34
e 3 35
e 3 37
e 3 41
e 4 5
e 4 10
e 4 24
e 4 28
e 4 32
e 4 33
e 4 36
e 4 40
e 5 6
e 5 13
e 5 39
e 5 40
e 6 9
e 6 11
e 6 12
e 6 22
e 6 25
e 6 33
e 7 26
e 7 47
e 7 49
e 8 25
e 8 33
e 8 36
e 8 46
e 8 47
e 8 49
e 9 12
e 9 15
e 9 24
e 9 40
e 9 42
e 10 20
e 10 32
e 11 30
e 11 34
e 11 42
e 11 48
e 12 24
e 12 25
e 12 29
e 12 38
e 12 40
e 13 21
e 13 41
e 13 49
e 15 30
e 15 31
e 15 38
e 15 39
e 16 22
e 16 28
e 16 29
e 16 34
e 16 39
e 17 19
e 17 29
e 17 40
e 17 41
e 17 48
e 18 30
e 18 34
e 18 38
e 18 50
e 19 25
e 19 27
e 19 30
e 20 36
e 20 39
e 20 43
e 20 44
e 20 48
e 21 33
e 21 34
e 21 42
e 21 46
e 22 28
e 22 50
e 23 24
e 24 40
e 24 46
e 24 47
e 25 34
e 25 40
e 27 33
e 27 38
e 27 39
e 29 30
e 29 34
e 29 40
e 29 45
e 30 42
e 30 50
e 31 46
e 33 34
e 34 35
e 34 47
e 35 37
e 35 48
e 36 40
e 37 48
e 37 49
e 42 49
e 43 48
e 46 49
